proyfinal/src/viki/013/experimentInOfficeAgust.take6.output/c3d948fd-9f61-4e90-854d-7ecca005608b.als.out
Reading from standard input... Use '--help' for help.
============================[ Problem Statistics ]=============================
|                                                                             |
|  Number of variables:         87638                                         |
|  Number of clauses:          161767                                         |
|  Parse time:                   0.02 s                                       |
|                                                                             |
============================[ Search Statistics ]==============================
| Conflicts |          ORIGINAL         |          LEARNT          | Progress |
|           |    Vars  Clauses Literals |    Limit  Clauses Lit/Cl |          |
===============================================================================
|       100 |   63999   110927   277171 |    40673      100     20 | 26.973 % |
|       250 |   63999   110927   277171 |    44740      250     35 | 26.973 % |
|       475 |   63999   110927   277171 |    49214      475    155 | 26.973 % |
|       812 |   63999   110927   277171 |    54136      812    164 | 26.973 % |
|      1318 |   63969   110883   277081 |    59549     1314    124 | 27.008 % |
|      2077 |   63969   110765   276807 |    65504     2073     99 | 27.008 % |
|      3216 |   63938   110637   276509 |    72055     3208     84 | 27.043 % |
|      4924 |   63902   110473   276130 |    79260     4912     88 | 27.084 % |
|      7486 |   63902   110473   276130 |    87186     7474     96 | 27.084 % |
|     11330 |   63902   110473   276130 |    95905    11318    108 | 27.084 % |
===============================================================================
restarts              : 63
conflicts             : 16983          (5940 /sec)
decisions             : 68197          (0.00 % random) (23853 /sec)
propagations          : 25726705       (8998378 /sec)
conflict literals     : 1878214        (51.46 % deleted)
Memory used           : 38.37 MB
CPU time              : 2.85904 s

INDETERMINATE
